154
0 80 45 102 16 103 95 10 109 4 
122 110 42 123 101 94 70 32 61 59 
151 83 125 72 35 24 2 97 17 7 
85 52 1 141 54 142 107 65 129 124 
106 55 90 140 79 9 134 133 75 147 
117 36 5 88 130 21 30 67 153 89 
126 111 39 118 18 51 149 41 99 92 
27 69 108 34 48 40 132 63 138 33 
115 131 73 53 76 93 44 38 127 23 
86 15 62 128 150 74 13 119 144 11 
19 113 136 82 91 87 58 12 152 14 
100 49 28 8 81 31 37 96 112 56 
148 26 145 116 78 121 135 43 98 6 
137 57 25 139 47 46 77 143 66 104 
105 71 50 64 60 68 146 29 22 114 
3 20 84 120 
